50

100 29 176
98 9 255
98 24 180
97 11 283
95 24 193
94 25 326
90 13 171
90 19 267
89 12 283
86 18 301
85 22 254
83 2 155
81 23 305
79 20 333
79 22 212
74 12 325
72 14 225
72 2 174
71 19 257
68 16 206
67 10 354
65 12 353
64 18 158
64 3 202
62 1 357
59 2 288
58 15 345
56 15 233
55 8 245
55 11 328
54 12 323
51 13 360
51 15 313
50 1 177
47 3 187
46 6 231
45 2 306
44 4 179
43 11 154
40 3 317
36 4 251
34 8 190
33 10 199
31 5 359
29 6 294
28 8 337
27 4 333
27 6 228
26 4 332
21 1 322
